c Random generated cnf formula, satisfiable: false
p cnf 10 50
6 -4 1 0
-10 -7 5 0
-10 6 -5 0
-8 -2 -6 0
7 8 9 0
7 -2 10 0
-3 10 8 0
-5 9 -7 0
7 -9 10 0
10 -8 -2 0
-5 2 4 0
-2 -3 -1 0
3 -8 -10 0
-3 1 -4 0
-3 4 8 0
5 -8 9 0
9 -6 -1 0
6 -5 2 0
5 -9 -4 0
7 8 2 0
-1 7 -4 0
-8 -7 -3 0
-8 -5 6 0
-7 4 5 0
3 -2 -1 0
-4 1 8 0
-7 3 2 0
-6 3 9 0
8 5 -4 0
4 -5 10 0
3 4 -6 0
-2 -7 -10 0
2 8 1 0
6 -8 -5 0
-4 -8 -3 0
3 -6 -1 0
8 -3 1 0
-9 8 1 0
1 -3 -6 0
7 -9 4 0
-3 7 4 0
-9 -4 6 0
1 9 5 0
-6 -4 -3 0
4 5 -8 0
3 7 4 0
-2 -6 9 0
-3 -4 -2 0
-9 -2 4 0
2 3 -4 0
